p cnf 13 365 
c Factors encoded in variables 1-6 and 7-12
c Target number: 1591
c Factors: 43 x 37
-6 -4 -3 -12 -11 10 -9 8 0
-3 -12 -11 -14 14 0
6 -4 -2 12 10 -9 -8 14 14 0
5 4 3 -2 -12 -11 14 -14 0
5 -2 11 -10 14 0
-6 -5 -4 -3 12 -8 -14 -14 0
-4 -10 -9 -8 -14 0
4 3 -10 8 -14 0
6 5 3 12 10 14 -14 0
-6 -3 2 -12 10 9 -8 -14 14 0
6 5 -4 -3 -2 10 9 14 -14 0
4 -2 10 -8 -14 -14 -14 0
-5 -4 -3 -12 -9 14 -14 -14 0
-4 -10 9 8 -14 0
5 -3 11 9 14 -14 0
-4 3 2 10 14 0
-6 -3 2 -11 -10 -9 -8 14 -14 0
-4 3 -12 -11 14 -14 14 0
-6 4 -3 -10 8 -14 14 0
5 -4 -3 -11 8 -14 -14 -14 0
-5 4 -3 -2 -12 -11 10 14 -14 0
6 5 -3 -11 14 14 14 0
6 5 2 -11 -10 -9 -14 0
5 11 -10 -8 -14 0
-6 5 3 -2 12 -11 14 -14 0
-4 3 12 -11 -10 -9 -14 -14 0
1 0
6 4 12 10 14 -14 -14 0
5 4 3 10 -14 0
-4 3 12 9 8 14 -14 0
-4 2 10 9 -14 0
6 4 12 10 14 -14 0
-6 4 -3 -12 -10 -14 -14 0
6 -5 -4 -3 12 -9 8 -14 -14 0
6 -5 12 -11 -14 0
6 3 -2 10 -8 14 -14 0
-5 -4 3 12 11 -9 -8 14 -14 0
6 -4 3 -2 12 -11 -9 -14 14 0
6 5 2 -11 10 -14 14 -14 0
-6 5 4 10 -9 14 14 14 0
6 -5 -4 -11 10 -14 0
5 4 11 -14 -14 0
4 3 10 9 -14 0
6 5 12 0
-10 -14 -14 0
5 -4 3 2 -10 9 14 -14 14 14 0
6 4 2 12 -11 14 -14 0
-4 -3 -10 -8 14 0
4 -3 -2 -12 11 10 14 14 14 0
5 -4 -11 -10 8 -14 -14 0
5 -3 2 12 -10 9 14 -14 0
5 -4 11 8 -14 0
-4 -3 11 -10 14 14 0
-3 2 -12 10 9 14 14 -14 0
5 4 -3 -12 11 -8 -14 -14 0
5 4 11 10 0
6 5 3 -11 10 -14 14 0
3 -11 -10 9 14 -14 0
-5 3 -11 10 9 8 14 14 0
-5 -2 -11 10 -14 0
-5 4 -3 2 -12 -11 -9 -14 -14 0
6 5 -4 3 -2 -12 -14 0
5 4 12 11 -10 14 -14 0
5 -4 3 -11 10 -8 0
6 -5 3 -2 -12 10 -9 14 0
6 -5 -4 -3 12 11 -8 -14 0
3 8 14 -14 14 14 0
-6 -3 -2 -11 -9 -8 14 -14 14 14 0
-5 -3 12 10 -8 -14 14 14 0
-6 -5 11 10 -9 -8 14 14 0
-6 -5 4 3 -12 11 14 0
-14 -14 0
-6 5 4 3 2 12 14 0
-5 12 11 -9 14 14 14 0
4 -10 -9 -8 14 0
6 12 0
6 3 2 -11 -10 -9 14 -14 0
-5 4 -3 11 -10 0
4 -3 -2 -10 14 0
-6 3 2 -12 -9 -8 -14 14 -14 0
10 -8 -14 -14 0
-5 -4 -3 -10 -9 14 14 14 0
-6 -5 4 3 -10 -8 14 -14 14 0
-5 4 -11 10 0
6 -5 -4 12 11 8 14 0
-2 12 -9 -8 -14 -14 14 0
6 4 -3 -2 12 10 -9 -8 14 -14 0
-5 4 -3 2 12 11 -10 -9 -14 0
-4 3 2 10 9 14 14 0
3 -12 11 -10 -8 14 14 14 0
-5 -2 -12 -11 -10 9 -8 14 -14 0
6 5 -4 -3 -2 -10 9 -14 -14 0
4 -3 10 -9 14 0
6 4 12 -14 0
-3 -2 -11 -10 9 -14 -14 14 0
-5 -4 -3 12 11 8 -14 0
2 12 -9 14 14 14 0
4 -2 -12 -11 -8 -14 0
-6 -5 -3 -2 -11 -10 8 14 -14 14 0
5 4 12 10 9 -14 0
-6 5 3 -2 9 -8 14 -14 0
4 3 2 -10 14 0
-6 -5 -11 10 0
6 5 2 -12 -11 -10 -14 14 0
6 12 10 -14 14 14 0
-6 -5 4 3 -11 -9 -8 -14 14 0
5 -14 0
6 4 3 11 -14 -14 0
6 12 -10 -14 -14 14 -14 0
-5 -3 -12 11 9 14 14 14 0
-5 -4 3 12 -10 -8 14 -14 0
-6 -12 -10 -14 0
-5 -4 -2 11 -10 9 -8 -14 0
12 -14 0
-6 -5 -4 -3 -2 12 -14 0
-6 4 -3 12 -11 10 9 -8 14 -14 0
-6 4 -3 12 -10 0
12 11 9 -14 -14 0
6 11 0
-5 -4 12 11 -8 14 14 14 0
-4 -3 2 -11 9 8 14 -14 0
-12 -11 -10 9 8 -14 -14 0
-4 -3 -11 -10 -9 14 14 14 0
-3 -12 -11 -10 -9 14 0
-6 -5 4 11 10 -9 14 0
3 -2 -12 11 10 9 14 14 14 0
6 -3 -2 -10 -9 14 14 14 0
2 8 0
-4 -2 12 10 -9 -8 -14 14 0
5 4 -3 -2 -12 -11 14 14 0
5 -2 12 9 -14 -14 0
-5 -4 2 10 -9 14 -14 0
-6 -5 3 -11 10 8 -14 14 0
-4 3 -10 8 14 0
6 5 4 2 12 10 9 0
-5 2 -11 -10 -14 0
8 9 10 11 12 0
-6 -5 -4 -2 9 14 -14 -14 0
4 3 -2 12 11 -10 14 -14 0
5 -4 11 -10 9 -8 -14 0
5 4 -3 -2 -11 -10 0
-6 -5 4 -12 11 -10 0
6 5 0
6 4 12 11 10 8 -14 0
6 3 2 9 14 14 -14 0
6 3 12 9 -14 0
5 2 11 10 14 0
-5 3 -2 12 -10 -8 -14 0
-6 3 -11 -8 14 14 -14 -14 0
-5 -4 -3 -12 8 14 0
-6 4 -3 12 -9 -8 -14 -14 0
-5 3 12 -11 9 14 14 0
6 5 -4 -12 10 -9 8 0
6 -5 -4 2 12 -10 9 -14 -14 0
-4 3 -12 -11 -10 -14 0
-6 5 4 -3 -12 10 -9 14 -14 0
-6 -12 10 14 -14 0
5 -4 2 -12 -11 10 14 14 0
11 10 9 8 0
-6 -5 -3 -2 -8 14 -14 0
-6 -5 4 -3 -11 -10 9 14 14 0
-6 3 2 -11 -10 14 14 0
-6 -5 12 -10 9 -14 0
-5 4 3 -2 12 14 0
-3 -9 0
-5 -4 -3 -2 -9 -8 14 14 14 0
5 3 10 9 -14 -14 0
6 4 3 2 -10 14 -14 0
4 10 14 14 14 0
5 4 -2 12 -11 -10 -9 8 14 0
-6 5 -4 -3 -12 11 -10 -9 14 0
-6 -5 -4 -3 -9 14 14 14 0
5 3 11 -14 0
5 -4 2 11 10 -9 14 -14 0
-5 -4 3 -12 11 -10 14 -14 14 0
6 3 -2 10 -9 8 14 0
-4 2 -12 -11 10 9 8 14 14 0
4 10 9 8 -14 0
5 -3 2 -12 10 -9 -8 14 0
6 12 11 0
-6 -5 -3 12 11 10 8 -14 0
-5 4 -12 -11 0
-6 -4 -3 -2 9 -8 -14 14 0
-5 -4 12 11 9 8 -14 14 0
4 -10 9 8 14 0
-5 -3 2 -10 9 8 -14 -14 0
5 4 12 9 8 0
6 3 2 10 14 0
6 -3 -2 -11 -10 -9 14 0
-6 5 4 12 -10 9 14 -14 0
6 -2 -12 -11 10 9 8 0
6 3 12 -10 9 -14 14 -14 0
12 10 9 8 14 -14 -14 0
5 -4 -3 -2 -12 11 -9 -14 -14 14 0
6 -4 2 -11 -9 8 14 -14 0
2 8 14 -14 -14 0
-5 3 -12 11 -10 -9 14 -14 -14 0
6 2 12 10 9 8 14 0
5 -3 2 9 -14 -14 14 0
-5 -4 11 10 -9 0
-6 5 -4 -3 -11 -9 14 14 0
6 5 -4 11 10 14 -14 0
6 -5 -4 -3 -2 12 0
12 11 10 9 8 -14 0
4 10 9 8 -14 -14 0
-6 -5 -4 3 -11 10 -8 14 -14 0
6 5 4 -2 -12 10 14 -14 0
-6 5 -4 3 -2 -8 14 14 0
-6 -4 3 -12 10 -9 -14 14 0
-5 3 -2 10 -9 -8 -14 -14 0
-6 4 3 -2 -12 11 -10 9 14 0
-6 -5 -3 2 -12 10 -9 0
-5 -4 -3 2 -12 -9 -8 14 -14 14 0
4 -3 2 10 9 14 0
6 5 4 -14 -14 -14 0
5 4 3 2 0
4 11 9 -14 -14 0
5 11 10 9 -14 0
6 5 -12 9 -8 -14 14 0
-4 2 -12 -11 9 14 14 0
4 -3 -2 10 -14 0
-6 -5 -4 -3 2 -12 -9 -14 -14 0
4 10 9 -14 -14 0
5 3 -12 -11 8 14 -14 0
-6 12 11 -10 -8 -14 0
6 3 11 -10 -9 -8 14 0
-5 3 2 -12 10 9 8 -14 -14 0
-6 4 3 11 10 -9 14 14 0
-6 -5 -4 -3 -12 14 14 0
5 -4 3 -9 8 -14 -14 0
4 3 -2 12 -11 9 8 14 -14 0
3 11 -10 -8 -14 14 14 14 0
-4 10 -9 -8 14 0
-6 -4 -3 11 -10 -14 0
-5 -4 3 9 -14 14 0
-6 -5 -4 3 11 10 -8 14 -14 0
-5 -2 -11 -10 14 0
5 -4 -3 2 -12 11 -10 -14 14 0
-4 3 -10 9 -14 -14 0
5 -2 11 10 -14 0
-4 10 -9 14 -14 0
-6 -2 -11 -10 -9 -8 -14 -14 0
-6 5 -3 12 -10 9 14 14 0
5 4 -2 -12 -11 -10 14 14 0
2 3 4 5 6 0
-2 -8 0
5 4 -12 11 -10 -14 14 0
6 4 -3 -2 -12 10 14 0
-6 -5 -4 12 10 14 0
6 5 -3 -2 -12 -11 14 14 0
-4 2 -12 -11 -10 9 -14 0
3 -2 10 -14 0
-6 -5 -9 -8 14 -14 -14 0
5 -4 11 -8 14 0
5 4 12 11 -8 14 -14 14 0
5 3 11 9 -14 0
6 5 4 12 11 10 -14 0
-6 -5 4 3 -11 -10 9 8 -14 -14 0
5 4 2 -12 11 -8 -14 -14 -14 0
-6 -5 4 3 -12 10 8 -14 0
-6 -5 -4 -3 8 14 14 -14 0
-6 -4 3 -12 -10 9 14 14 14 0
6 -4 3 -2 -12 11 -9 -8 -14 14 0
3 2 -12 11 -10 -14 -14 14 0
-5 -12 10 -9 -8 14 -14 0
11 -14 0
6 4 -3 11 -8 14 -14 0
4 2 9 -14 -14 14 0
-5 11 10 -9 -14 -14 14 14 0
5 -2 10 -9 14 -14 -14 -14 0
-5 -4 -11 -10 0
7 0
4 -3 -2 10 -9 -8 14 0
6 5 -3 2 11 9 -14 0
-6 5 -4 12 -9 8 -14 0
-4 -3 -2 10 14 0
12 11 0
6 3 2 -12 -11 14 -14 0
5 3 -2 -12 -10 -9 -8 -14 14 0
5 -4 -3 12 10 -8 14 0
4 3 11 -14 -14 14 0
4 3 10 -8 -14 0
-2 -12 -11 9 14 -14 -14 0
-3 2 -12 -11 -10 -9 -14 -14 0
-4 3 2 -10 -14 0
3 -2 -12 -10 -9 8 -14 14 14 0
6 3 2 12 -10 14 -14 0
5 12 10 9 -14 -14 0
-5 -11 10 9 14 14 -14 0
5 -12 -11 -10 9 14 14 0
-4 -10 9 -14 -14 0
-6 -5 4 -3 -12 11 -9 8 14 0
-6 -5 4 12 11 9 -8 0
-6 -12 -11 -9 -8 14 14 0
5 12 11 9 14 -14 -14 0
-4 -12 10 -14 14 14 0
6 -4 -3 -2 9 14 -14 0
-6 -5 -4 3 2 -11 9 14 14 0
6 3 -2 -12 8 14 -14 -14 0
-6 -5 -4 12 -9 8 -14 -14 0
6 -4 3 12 11 -14 -14 0
-6 -4 3 -11 -8 14 -14 -14 0
-6 4 -2 -11 9 -8 14 14 14 0
-6 4 2 9 8 14 14 0
6 -14 0
11 -10 -8 -14 0
5 -3 -11 14 14 14 0
5 11 9 -14 0
-4 -3 -2 -10 -14 0
-5 -4 3 12 11 -9 14 0
-6 -3 -2 -12 -9 14 14 0
6 5 4 -2 12 -10 -14 0
4 -3 11 -10 -9 -14 0
-4 -2 11 -10 -9 14 0
-5 4 -3 12 -11 -9 -14 14 0
5 4 -3 -10 9 -14 14 0
-4 3 2 11 -14 0
4 10 14 14 -14 0
-4 3 12 -9 -8 14 14 0
-4 -2 10 -9 -14 0
-5 4 3 2 -10 9 8 14 0
-5 2 -11 10 14 0
6 -5 -2 9 14 14 14 0
6 5 -3 -11 10 9 14 0
-5 3 12 -10 8 14 0
-6 5 -3 -2 -12 -11 -10 9 -14 0
6 3 2 12 -11 -10 14 14 0
-4 3 10 -9 -14 14 0
-4 10 9 8 14 0
3 9 0
6 4 -2 12 11 10 0
6 -2 -11 8 -14 -14 -14 14 0
4 2 -10 9 8 14 14 14 0
3 2 11 -10 -9 -14 -14 0
-6 -4 -2 -12 -10 -8 -14 -14 0
5 11 10 -14 0
5 -4 -3 -2 12 -11 9 14 0
-11 -10 -8 -14 14 -14 0
-6 5 -4 3 -2 -14 -14 0
4 -3 12 9 -14 14 14 0
-5 4 3 12 -11 -10 -14 0
5 11 10 -14 -14 0
5 4 -2 -10 -9 8 14 0
-6 -5 -4 3 2 -14 0
-6 5 -11 -10 14 14 0
5 12 0
-6 5 -4 -12 -11 10 0
6 5 12 11 -14 0
-6 -5 -2 -11 -9 14 -14 0
-5 -4 3 11 10 -8 0
-5 -4 -3 -12 -10 9 14 -14 -14 0
5 3 -2 -11 10 -9 14 0
-5 4 -12 11 -10 14 14 0
-12 -11 -8 -14 0
-5 3 2 -11 9 8 -14 -14 0
6 4 3 11 10 -14 0
-6 5 4 3 12 -9 14 -14 0
-6 -5 -2 -11 -10 -8 -14 0
4 3 10 -9 8 14 0
-5 4 -3 -12 -11 10 14 -14 14 0
-6 -5 -4 -12 14 14 0
6 -2 -11 -10 -9 -8 14 14 0
6 -3 2 12 -11 -10 -9 -14 0
6 5 3 11 10 -8 -14 0
5 -4 3 -2 -11 -10 -8 -14 0
